50
12855

35 230
53 200
476 813
447 950
346 20
321 366
603 629
162 631
912 781
59 386
541 231
994 29
191 649
404 405
450 494
933 618
544 646
904 557
327 970
406 574
577 992
997 373
57 89
576 892
33 455
649 303
57 721
114 613
510 297
965 684
30 768
848 744
51 564
565 914
932 325
433 933
818 737
264 6
273 663
375 393
971 441
462 465
938 771
419 629
591 391
162 39
180 868
839 153
6 636
768 914
